Geographic Exponential Decay
40 297 200 147 6 138 29 197 176 306 263 98 233 59 33 287 141 192 146 142 48 145 311 84 317 316 143 7 8 72 220 290 244 60 18 118 13 292 53 35 189
p edge 320 325
e 0 94 1.0
e 1 84 18.0
e 1 0 3.0
e 2 182 2.0
e 2 1 3.0
e 3 43 4.0
e 3 2 2.0
e 4 117 8.0
e 4 3 11.0
e 5 143 64.0
e 5 4 8.0
e 6 292 65.0
e 6 18 5.0
e 6 213 42.0
e 6 228 25.0
e 6 98 49.0
e 6 5 87.0
e 7 142 2.0
e 7 23 84.0
e 7 55 25.0
e 7 238 95.0
e 7 132 58.0
e 8 82 86.0
e 8 19 20.0
e 8 187 67.0
e 8 33 82.0
e 8 13 95.0
e 8 6 84.0
e 9 255 5.0
e 9 8 76.0
e 10 251 6.0
e 10 9 3.0
e 11 285 8.0
e 11 10 4.0
e 12 130 9.0
e 12 11 10.0
e 13 272 28.0
e 13 250 74.0
e 13 74 28.0
e 13 95 98.0
e 14 123 21.0
e 14 12 6.0
e 15 30 10.0
e 15 119 21.0
e 15 14 7.0
e 16 83 12.0
e 16 201 10.0
e 16 203 48.0
e 16 15 11.0
e 17 32 5.0
e 17 16 22.0
e 18 240 23.0
e 18 221 29.0
e 18 252 31.0
e 18 91 73.0
e 20 271 1.0
e 20 17 2.0
e 21 165 3.0
e 21 20 1.0
e 22 46 4.0
e 22 21 2.0
e 24 25 3.0
e 24 22 11.0
e 26 166 1.0
e 26 24 9.0
e 27 128 12.0
e 27 204 20.0
e 27 26 5.0
e 28 112 3.0
e 28 27 17.0
e 29 149 6.0
e 29 292 66.0
e 29 248 21.0
e 29 92 19.0
e 29 288 84.0
e 31 247 3.0
e 31 263 29.0
e 31 28 21.0
e 33 100 58.0
e 33 57 87.0
e 33 34 66.0
e 33 62 90.0
e 35 36 56.0
e 35 295 22.0
e 35 37 14.0
e 35 167 67.0
e 35 224 33.0
e 35 31 27.0
e 38 267 1.0
e 38 35 40.0
e 39 60 55.0
e 39 38 4.0
e 40 41 29.0
e 40 53 71.0
e 40 42 35.0
e 40 39 49.0
e 44 253 1.0
e 44 40 25.0
e 45 236 1.0
e 45 44 1.0
e 47 48 55.0
e 47 45 1.0
e 48 194 100.0
e 48 232 66.0
e 48 77 51.0
e 48 227 78.0
e 49 196 5.0
e 49 47 5.0
e 50 318 1.0
e 50 49 1.0
e 51 317 90.0
e 52 273 1.0
e 52 50 3.0
e 53 135 45.0
e 53 113 9.0
e 53 266 71.0
e 53 109 27.0
e 54 110 4.0
e 54 242 10.0
e 54 52 12.0
e 56 58 1.0
e 56 54 16.0
e 59 274 42.0
e 59 254 7.0
e 59 126 51.0
e 59 60 17.0
e 59 184 58.0
e 60 61 66.0
e 60 256 41.0
e 60 185 45.0
e 63 226 2.0
e 63 56 2.0
e 64 312 13.0
e 64 162 11.0
e 64 63 11.0
e 65 89 16.0
e 65 96 10.0
e 65 64 16.0
e 66 296 1.0
e 66 65 19.0
e 67 68 20.0
e 67 70 50.0
e 67 88 45.0
e 67 66 7.0
e 69 263 19.0
e 71 72 46.0
e 72 147 4.0
e 72 150 13.0
e 72 73 67.0
e 72 103 63.0
e 75 131 2.0
e 75 67 33.0
e 76 274 5.0
e 78 79 3.0
e 78 75 4.0
e 80 212 1.0
e 80 78 1.0
e 81 84 22.0
e 84 163 78.0
e 84 168 5.0
e 84 85 36.0
e 86 302 1.0
e 86 80 4.0
e 87 169 1.0
e 87 86 3.0
e 90 303 7.0
e 90 87 4.0
e 93 316 82.0
e 97 205 6.0
e 97 90 8.0
e 98 206 27.0
e 98 99 90.0
e 98 101 66.0
e 98 231 6.0
e 102 104 2.0
e 102 97 5.0
e 105 106 2.0
e 105 102 9.0
e 107 108 13.0
e 107 105 5.0
e 108 111 17.0
e 108 114 17.0
e 115 118 90.0
e 115 107 5.0
e 116 207 4.0
e 116 115 2.0
e 118 120 5.0
e 118 121 16.0
e 118 122 12.0
e 118 262 14.0
e 123 179 15.0
e 124 125 1.0
e 124 116 6.0
e 127 147 40.0
e 129 130 3.0
e 133 294 1.0
e 133 124 2.0
e 134 259 1.0
e 134 133 1.0
e 136 137 1.0
e 136 134 2.0
e 138 249 38.0
e 138 304 68.0
e 138 174 85.0
e 138 139 29.0
e 138 319 96.0
e 138 136 94.0
e 140 141 95.0
e 140 138 15.0
e 141 275 59.0
e 141 190 65.0
e 141 276 17.0
e 141 160 82.0
e 142 143 71.0
e 142 268 40.0
e 142 239 31.0
e 142 144 1.0
e 143 300 72.0
e 143 257 64.0
e 143 314 16.0
e 145 290 62.0
e 145 315 100.0
e 145 222 92.0
e 145 293 30.0
e 145 214 24.0
e 146 234 33.0
e 146 200 22.0
e 146 147 20.0
e 146 148 90.0
e 146 151 66.0
e 147 284 50.0
e 147 152 87.0
e 153 154 2.0
e 153 140 3.0
e 155 156 4.0
e 155 153 9.0
e 157 158 2.0
e 157 155 5.0
e 159 313 1.0
e 159 157 1.0
e 161 233 44.0
e 164 170 1.0
e 164 159 1.0
e 171 183 1.0
e 171 164 1.0
e 172 173 1.0
e 172 171 2.0
e 175 176 44.0
e 175 172 1.0
e 176 177 38.0
e 176 178 77.0
e 176 217 56.0
e 176 280 86.0
e 180 233 13.0
e 181 197 95.0
e 186 188 20.0
e 186 189 25.0
e 186 175 18.0
e 189 191 87.0
e 189 225 76.0
e 189 223 84.0
e 189 279 64.0
e 192 193 93.0
e 192 297 34.0
e 192 307 59.0
e 192 244 80.0
e 192 195 72.0
e 195 287 51.0
e 197 298 38.0
e 197 198 67.0
e 197 199 76.0
e 197 200 15.0
e 200 316 77.0
e 200 311 14.0
e 200 202 31.0
e 208 218 8.0
e 208 186 20.0
e 209 210 1.0
e 209 208 2.0
e 211 305 1.0
e 211 209 5.0
e 214 229 18.0
e 215 237 1.0
e 215 211 5.0
e 216 276 1.0
e 219 258 11.0
e 219 215 11.0
e 220 230 40.0
e 220 233 88.0
e 220 260 93.0
e 220 235 79.0
e 220 277 41.0
e 233 235 35.0
e 233 239 66.0
e 241 269 6.0
e 241 219 3.0
e 243 244 14.0
e 244 245 86.0
e 244 286 78.0
e 244 246 68.0
e 261 262 4.0
e 263 264 8.0
e 263 265 83.0
e 263 270 26.0
e 278 281 1.0
e 278 241 2.0
e 282 283 9.0
e 283 287 26.0
e 283 289 38.0
e 287 290 10.0
e 287 291 64.0
e 287 316 87.0
e 290 292 37.0
e 290 297 75.0
e 290 299 46.0
e 292 297 18.0
e 292 301 73.0
e 297 306 83.0
e 297 308 93.0
e 306 309 74.0
e 306 310 64.0
e 306 311 13.0
e 306 316 14.0
e 311 316 84.0
e 311 317 28.0
